************************************************************************
file with basedata            : cm253_.bas
initial value random generator: 12474
************************************************************************
projects                      :  1
jobs (incl. supersource/sink ):  18
horizon                       :  128
RESOURCES
  - renewable                 :  2   R
  - nonrenewable              :  2   N
  - doubly constrained        :  0   D
************************************************************************
PROJECT INFORMATION:
pronr.  #jobs rel.date duedate tardcost  MPM-Time
    1     16      0       19        6       19
************************************************************************
PRECEDENCE RELATIONS:
jobnr.    #modes  #successors   successors
   1        1          3           2   3   4
   2        2          2          10  17
   3        2          3           6  10  11
   4        2          3           5   7   8
   5        2          3           6  10  11
   6        2          2           9  13
   7        2          1          17
   8        2          2          12  13
   9        2          2          14  16
  10        2          2          15  16
  11        2          1          13
  12        2          3          14  15  16
  13        2          2          14  15
  14        2          1          17
  15        2          1          18
  16        2          1          18
  17        2          1          18
  18        1          0        
************************************************************************
REQUESTS/DURATIONS:
jobnr. mode duration  R 1  R 2  N 1  N 2
------------------------------------------------------------------------
  1      1     0       0    0    0    0
  2      1     2       8    8    6    6
         2     6       7    5    4    5
  3      1     2       7    6    9    3
         2     9       3    5    9    1
  4      1     3      10    4    4    7
         2     9      10    4    3    6
  5      1     1       4    4    7    7
         2    10       1    3    7    6
  6      1     8       3    7    2    9
         2     8       2    7    2   10
  7      1     3      10    6    5    1
         2     9       8    3    4    1
  8      1     2       5    3    8    8
         2    10       5    2    3    7
  9      1     2       6    3    8    2
         2     7       4    2    6    1
 10      1     7       2    4    7    8
         2     9       1    3    6    4
 11      1     4       7    9    9    8
         2     9       7    2    2    7
 12      1     3      10    7    8   10
         2     5       5    6    8    4
 13      1     4       8    5    7    8
         2     6       8    5    7    6
 14      1     1       3    3    5    6
         2     4       2    3    4    3
 15      1     1       2    2   10    5
         2     9       2    1   10    4
 16      1     3      10    6   10    6
         2     8       8    4   10    6
 17      1     2       4    5    8    6
         2    10       3    2    8    6
 18      1     0       0    0    0    0
************************************************************************
RESOURCEAVAILABILITIES:
  R 1  R 2  N 1  N 2
   16   14  108   95
************************************************************************
